c colouring generated by benchmark framework
p edge 278 2295
v 1 0
v 2 0
v 3 0
v 4 0
v 5 0
v 6 0
v 7 0
v 8 0
v 9 0
v 10 0
v 11 0
v 12 0
v 13 0
v 14 0
v 15 0
v 16 0
v 17 0
v 18 0
v 19 0
v 20 0
v 21 0
v 22 0
v 23 0
v 24 0
v 25 0
v 26 0
v 27 0
v 28 0
v 29 0
v 30 0
v 31 0
v 32 0
v 33 0
v 34 0
v 35 0
v 36 0
v 37 0
v 38 0
v 39 0
v 40 0
v 41 0
v 42 0
v 43 0
v 44 0
v 45 0
v 46 0
v 47 0
v 48 0
v 49 0
v 50 0
v 51 0
v 52 0
v 53 0
v 54 0
v 55 0
v 56 0
v 57 0
v 58 0
v 59 0
v 60 0
v 61 0
v 62 0
v 63 0
v 64 0
v 65 0
v 66 0
v 67 0
v 68 0
v 69 0
v 70 0
v 71 0
v 72 0
v 73 0
v 74 0
v 75 0
v 76 0
v 77 0
v 78 0
v 79 0
v 80 0
v 81 0
v 82 0
v 83 0
v 84 0
v 85 0
v 86 0
v 87 0
v 88 0
v 89 0
v 90 0
v 91 0
v 92 0
v 93 0
v 94 0
v 95 0
v 96 0
v 97 0
v 98 0
v 99 0
v 100 0
v 101 0
v 102 0
v 103 0
v 104 0
v 105 0
v 106 0
v 107 0
v 108 0
v 109 0
v 110 0
v 111 0
v 112 0
v 113 0
v 114 0
v 115 0
v 116 0
v 117 0
v 118 0
v 119 1
v 120 1
v 121 1
v 122 1
v 123 1
v 124 1
v 125 1
v 126 1
v 127 1
v 128 1
v 129 1
v 130 1
v 131 1
v 132 1
v 133 1
v 134 1
v 135 1
v 136 1
v 137 1
v 138 1
v 139 1
v 140 1
v 141 1
v 142 1
v 143 1
v 144 1
v 145 1
v 146 1
v 147 1
v 148 1
v 149 1
v 150 1
v 151 1
v 152 1
v 153 1
v 154 1
v 155 1
v 156 1
v 157 1
v 158 1
v 159 1
v 160 1
v 161 1
v 162 1
v 163 1
v 164 1
v 165 1
v 166 1
v 167 1
v 168 1
v 169 1
v 170 1
v 171 1
v 172 1
v 173 1
v 174 1
v 175 1
v 176 1
v 177 1
v 178 1
v 179 1
v 180 1
v 181 1
v 182 1
v 183 1
v 184 1
v 185 1
v 186 1
v 187 1
v 188 1
v 189 1
v 190 1
v 191 1
v 192 1
v 193 1
v 194 1
v 195 1
v 196 1
v 197 1
v 198 1
v 199 1
v 200 1
v 201 1
v 202 1
v 203 1
v 204 1
v 205 1
v 206 1
v 207 1
v 208 1
v 209 1
v 210 1
v 211 1
v 212 1
v 213 1
v 214 1
v 215 1
v 216 1
v 217 1
v 218 1
v 219 1
v 220 1
v 221 1
v 222 1
v 223 1
v 224 1
v 225 1
v 226 1
v 227 1
v 228 1
v 229 1
v 230 1
v 231 1
v 232 1
v 233 1
v 234 1
v 235 1
v 236 1
v 237 1
v 238 1
v 239 1
v 240 1
v 241 1
v 242 1
v 243 1
v 244 1
v 245 1
v 246 1
v 247 1
v 248 1
v 249 1
v 250 1
v 251 1
v 252 1
v 253 1
v 254 1
v 255 1
v 256 1
v 257 1
v 258 1
v 259 1
v 260 1
v 261 1
v 262 1
v 263 1
v 264 1
v 265 1
v 266 1
v 267 1
v 268 1
v 269 1
v 270 1
v 271 1
v 272 1
v 273 1
v 274 1
v 275 1
v 276 1
v 277 1
v 278 1
